(set-logic QF_SLIA)
(declare-fun var0 () String)
(assert (str.in_re var0 (re.++ ((_ re.loop 13 545) (re.++ (re.union (str.to_re "MSY") (re.union (str.to_re "A") (re.union (str.to_re "a`") (str.to_re "t(~")))) (re.++ (re.union (str.to_re "}a") (re.union (str.to_re "g") (re.union (str.to_re "y#") (str.to_re "Yo")))) (re.++ (re.union (str.to_re "<<N") (re.union (str.to_re "w") (re.union (str.to_re "z}") (str.to_re "}")))) (re.union (str.to_re "6`!") (re.union (str.to_re "Q") (re.union (str.to_re "x%F") (str.to_re "J")))))))) (re.++ ((_ re.loop 13 410) (re.++ (re.union (str.to_re "$") (re.union (str.to_re "q\\") (re.union (str.to_re "rQ") (str.to_re ",")))) (re.++ (re.union (str.to_re "Y4k") (re.union (str.to_re "3iv") (re.union (str.to_re "N") (str.to_re "4=p")))) (re.++ (re.union (str.to_re "r") (re.union (str.to_re "~>") (re.union (str.to_re "y") (str.to_re "i")))) (re.union (str.to_re "_f") (re.union (str.to_re "Y1{") (re.union (str.to_re "!)") (str.to_re "Q")))))))) (re.++ ((_ re.loop 16 501) (re.++ (re.union (str.to_re ">^") (re.union (str.to_re "+!m") (re.union (str.to_re "fT") (str.to_re "ri")))) (re.++ (re.union (str.to_re "#") (re.union (str.to_re "^") (re.union (str.to_re "{") (str.to_re "%")))) (re.++ (re.union (str.to_re "3") (re.union (str.to_re "cNL") (re.union (str.to_re "J5O") (str.to_re "%")))) (re.union (str.to_re "v8") (re.union (str.to_re "E") (re.union (str.to_re "hb%") (str.to_re "WN")))))))) ((_ re.loop 2 652) (re.++ (re.union (str.to_re "l") (re.union (str.to_re "q^") (re.union (str.to_re "ziG") (str.to_re "~:.")))) (re.++ (re.union (str.to_re "\u0022p7") (re.union (str.to_re "/fC") (re.union (str.to_re "0;") (str.to_re "(")))) (re.++ (re.union (str.to_re "@") (re.union (str.to_re "Wn") (re.union (str.to_re "Q1") (str.to_re "C$")))) (re.union (str.to_re "Qh\u0022") (re.union (str.to_re ";d$") (re.union (str.to_re "\\da") (str.to_re "zOm")))))))))))))
(assert (not (str.in_re var0 (re.++ ((_ re.loop 9 296) (re.++ (re.union (str.to_re "=!z") (re.union (str.to_re "E{!") (re.union (str.to_re ";F") (str.to_re "{yF")))) (re.++ (re.union (str.to_re "<") (re.union (str.to_re ";") (re.union (str.to_re "v7N") (str.to_re ";8*")))) (re.++ (re.union (str.to_re "]") (re.union (str.to_re "D/") (re.union (str.to_re "CF'") (str.to_re "\u0022")))) (re.union (str.to_re "Z") (re.union (str.to_re "6") (re.union (str.to_re "<_f") (str.to_re "t8")))))))) (re.++ ((_ re.loop 19 161) (re.++ (re.union (str.to_re ";") (re.union (str.to_re "F9V") (re.union (str.to_re "xp") (str.to_re ")!y")))) (re.++ (re.union (str.to_re "TJR") (re.union (str.to_re "z") (re.union (str.to_re ">") (str.to_re "WIZ")))) (re.++ (re.union (str.to_re "S") (re.union (str.to_re "Nm") (re.union (str.to_re "#L") (str.to_re "bKQ")))) (re.union (str.to_re "=It") (re.union (str.to_re "~t&") (re.union (str.to_re "t") (str.to_re "i8u")))))))) (re.++ ((_ re.loop 4 354) (re.++ (re.union (str.to_re "!}") (re.union (str.to_re "'K") (re.union (str.to_re "Wz$") (str.to_re "*1")))) (re.++ (re.union (str.to_re "R06") (re.union (str.to_re "e;") (re.union (str.to_re "Gt") (str.to_re "I")))) (re.++ (re.union (str.to_re "L~") (re.union (str.to_re "koN") (re.union (str.to_re "%f") (str.to_re "[_")))) (re.union (str.to_re "+%") (re.union (str.to_re "C6") (re.union (str.to_re "4") (str.to_re "F")))))))) ((_ re.loop 20 279) (re.++ (re.union (str.to_re "b@") (re.union (str.to_re "6^[") (re.union (str.to_re "4?<") (str.to_re "3g")))) (re.++ (re.union (str.to_re "m") (re.union (str.to_re "}`") (re.union (str.to_re "A") (str.to_re "0o]")))) (re.++ (re.union (str.to_re "fPV") (re.union (str.to_re "iP") (re.union (str.to_re "Sso") (str.to_re "O")))) (re.union (str.to_re "g") (re.union (str.to_re "N4P") (re.union (str.to_re "{^y") (str.to_re "[!0"))))))))))))))
(assert (not (str.in_re var0 (re.++ (re.* re.allchar) (re.++ (re.union (str.to_re "<") (re.union (str.to_re ">") (re.union (str.to_re "'") (re.union (str.to_re "\u0022") (str.to_re "&"))))) (re.* re.allchar))))))
(assert (<= 50 (str.len var0)))
(check-sat)
(get-model)
